# Objective value = 8.9945781686210319e+02
x0_1_0_1 0
x0_1_2_1 0
x0_1_3_1 0
x0_1_4_1 0
x0_2_0_1 0
x0_2_2_1 0
x0_2_3_1 0
x0_2_4_1 0
x0_3_0_1 0
x0_3_2_1 0
x0_3_3_1 0
x0_3_4_1 0
x0_4_0_1 0
x0_4_2_1 0
x0_4_3_1 0
x0_4_4_1 0
x0_1_0_2 0
x0_1_1_2 0
x0_1_3_2 0
x0_1_4_2 0
x0_2_0_2 0
x0_2_1_2 0
x0_2_3_2 0
x0_2_4_2 0
x0_3_0_2 0
x0_3_1_2 0
x0_3_3_2 0
x0_3_4_2 0
x0_4_0_2 0
x0_4_1_2 0
x0_4_3_2 0
x0_4_4_2 0
x0_1_0_3 0
x0_1_1_3 0
x0_1_2_3 0
x0_1_4_3 0
x0_2_0_3 0
x0_2_1_3 0
x0_2_2_3 0
x0_2_4_3 0
x0_3_0_3 0
x0_3_1_3 0
x0_3_2_3 0
x0_3_4_3 0
x0_4_0_3 0
x0_4_1_3 0
x0_4_2_3 0
x0_4_4_3 0
x0_1_0_4 0
x0_1_1_4 0
x0_1_2_4 0
x0_1_3_4 0
x0_2_0_4 0
x0_2_1_4 0
x0_2_2_4 1
x0_2_3_4 0
x0_3_0_4 0
x0_3_1_4 0
x0_3_2_4 0
x0_3_3_4 0
x0_4_0_4 0
x0_4_1_4 0
x0_4_2_4 0
x0_4_3_4 0
x1_0_0_2 0
x1_0_1_2 0
x1_0_3_2 0
x1_0_4_2 0
x1_2_0_2 0
x1_2_1_2 0
x1_2_3_2 0
x1_2_4_2 0
x1_3_0_2 0
x1_3_1_2 0
x1_3_3_2 0
x1_3_4_2 0
x1_4_0_2 0
x1_4_1_2 0
x1_4_3_2 0
x1_4_4_2 0
x1_0_0_3 0
x1_0_1_3 0
x1_0_2_3 0
x1_0_4_3 0
x1_2_0_3 0
x1_2_1_3 0
x1_2_2_3 0
x1_2_4_3 0
x1_3_0_3 0
x1_3_1_3 0
x1_3_2_3 0
x1_3_4_3 0
x1_4_0_3 0
x1_4_1_3 0
x1_4_2_3 0
x1_4_4_3 0
x1_0_0_4 0
x1_0_1_4 0
x1_0_2_4 0
x1_0_3_4 0
x1_2_0_4 0
x1_2_1_4 0
x1_2_2_4 0
x1_2_3_4 0
x1_3_0_4 0
x1_3_1_4 0
x1_3_2_4 0
x1_3_3_4 0
x1_4_0_4 0
x1_4_1_4 0
x1_4_2_4 0
x1_4_3_4 0
x2_0_0_3 0
x2_0_1_3 0
x2_0_2_3 0
x2_0_4_3 0
x2_1_0_3 0
x2_1_1_3 0
x2_1_2_3 0
x2_1_4_3 0
x2_3_0_3 0
x2_3_1_3 0
x2_3_2_3 0
x2_3_4_3 0
x2_4_0_3 0
x2_4_1_3 0
x2_4_2_3 0
x2_4_4_3 0
x2_0_0_4 0
x2_0_1_4 0
x2_0_2_4 0
x2_0_3_4 0
x2_1_0_4 0
x2_1_1_4 0
x2_1_2_4 0
x2_1_3_4 0
x2_3_0_4 0
x2_3_1_4 0
x2_3_2_4 0
x2_3_3_4 0
x2_4_0_4 0
x2_4_1_4 0
x2_4_2_4 0
x2_4_3_4 0
x3_0_0_4 0
x3_0_1_4 0
x3_0_2_4 0
x3_0_3_4 0
x3_1_0_4 0
x3_1_1_4 0
x3_1_2_4 0
x3_1_3_4 0
x3_2_0_4 0
x3_2_1_4 0
x3_2_2_4 0
x3_2_3_4 0
x3_4_0_4 0
x3_4_1_4 0
x3_4_2_4 0
x3_4_3_4 0
x0_0_0_1 0
x0_0_2_1 0
x0_0_3_1 0
x0_0_4_1 0
x0_1_1_1 1
x0_2_1_1 0
x0_3_1_1 0
x0_4_1_1 0
x0_0_1_1 0
x0_0_0_2 0
x0_0_1_2 0
x0_0_3_2 0
x0_0_4_2 0
x0_1_2_2 0
x0_2_2_2 1
x0_3_2_2 0
x0_4_2_2 0
x0_0_2_2 0
x0_0_0_3 0
x0_0_1_3 0
x0_0_2_3 0
x0_0_4_3 0
x0_1_3_3 0
x0_2_3_3 0
x0_3_3_3 1
x0_4_3_3 0
x0_0_3_3 0
x0_0_0_4 0
x0_0_1_4 0
x0_0_2_4 0
x0_0_3_4 0
x0_1_4_4 0
x0_2_4_4 0
x0_3_4_4 0
x0_4_4_4 0
x0_0_4_4 0
x1_1_0_2 0
x1_1_1_2 0
x1_1_3_2 0
x1_1_4_2 0
x1_0_2_2 0
x1_2_2_2 0
x1_3_2_2 0
x1_4_2_2 0
x1_1_2_2 1
x1_1_0_3 0
x1_1_1_3 0
x1_1_2_3 0
x1_1_4_3 0
x1_0_3_3 0
x1_2_3_3 0
x1_3_3_3 0
x1_4_3_3 0
x1_1_3_3 1
x1_1_0_4 0
x1_1_1_4 1
x1_1_2_4 0
x1_1_3_4 0
x1_0_4_4 0
x1_2_4_4 0
x1_3_4_4 0
x1_4_4_4 0
x1_1_4_4 0
x2_2_0_3 0
x2_2_1_3 0
x2_2_2_3 0
x2_2_4_3 0
x2_0_3_3 0
x2_1_3_3 0
x2_3_3_3 0
x2_4_3_3 0
x2_2_3_3 1
x2_2_0_4 0
x2_2_1_4 0
x2_2_2_4 1
x2_2_3_4 0
x2_0_4_4 0
x2_1_4_4 0
x2_3_4_4 0
x2_4_4_4 0
x2_2_4_4 0
x3_3_0_4 0
x3_3_1_4 1
x3_3_2_4 0
x3_3_3_4 0
x3_0_4_4 0
x3_1_4_4 0
x3_2_4_4 0
x3_4_4_4 0
x3_3_4_4 0
omega0_1_0 0
U0_1_0 0
omega0_1_1 0
U0_1_1 0
omega0_1_2 0
U0_1_2 0
omega0_1_3 0
U0_1_3 0
omega0_1_4 0
U0_1_4 0
omega0_2_0 0
U0_2_0 0
omega0_2_1 0
U0_2_1 0
omega0_2_2 0
U0_2_2 0
omega0_2_3 0
U0_2_3 0
omega0_2_4 0
U0_2_4 0
omega0_3_0 0
U0_3_0 0
omega0_3_1 0
U0_3_1 0
omega0_3_2 0
U0_3_2 0
omega0_3_3 0
U0_3_3 0
omega0_3_4 0
U0_3_4 0
omega0_4_0 0
U0_4_0 0
omega0_4_1 0
U0_4_1 1
omega0_4_2 0
U0_4_2 0
omega0_4_3 0
U0_4_3 0
omega0_4_4 0
U0_4_4 0
omega1_2_0 0
U1_2_0 0
omega1_2_1 0
U1_2_1 0
omega1_2_2 0
U1_2_2 0
omega1_2_3 0
U1_2_3 0
omega1_2_4 0
U1_2_4 0
omega1_3_0 0
U1_3_0 0
omega1_3_1 0
U1_3_1 0
omega1_3_2 0
U1_3_2 0
omega1_3_3 0
U1_3_3 0
omega1_3_4 0
U1_3_4 0
omega1_4_0 0
U1_4_0 0
omega1_4_1 0
U1_4_1 0
omega1_4_2 0
U1_4_2 0
omega1_4_3 0
U1_4_3 0
omega1_4_4 0
U1_4_4 0
omega2_3_0 0
U2_3_0 0
omega2_3_1 0
U2_3_1 0
omega2_3_2 0
U2_3_2 0
omega2_3_3 0
U2_3_3 0
omega2_3_4 0
U2_3_4 0
omega2_4_0 0
U2_4_0 0
omega2_4_1 0
U2_4_1 0
omega2_4_2 0
U2_4_2 0
omega2_4_3 0
U2_4_3 0
omega2_4_4 0
U2_4_4 0
omega3_4_0 0
U3_4_0 0
omega3_4_1 0
U3_4_1 0
omega3_4_2 0
U3_4_2 0
omega3_4_3 0
U3_4_3 0
omega3_4_4 0
U3_4_4 0
theta0_1_0 0
V0_1_0 0
theta0_1_1 0
V0_1_1 0
theta0_1_2 0
V0_1_2 0
theta0_1_3 0
V0_1_3 0
theta0_1_4 0
V0_1_4 0
theta0_2_0 0
V0_2_0 0
theta0_2_1 0
V0_2_1 0
theta0_2_2 0
V0_2_2 0
theta0_2_3 0
V0_2_3 0
theta0_2_4 0
V0_2_4 0
theta0_3_0 0
V0_3_0 0
theta0_3_1 0
V0_3_1 0
theta0_3_2 0
V0_3_2 0
theta0_3_3 0
V0_3_3 0
theta0_3_4 0
V0_3_4 0
theta0_4_0 0
V0_4_0 0
theta0_4_1 0
V0_4_1 0
theta0_4_2 0
V0_4_2 0
theta0_4_3 0
V0_4_3 1
theta0_4_4 0
V0_4_4 0
theta1_2_0 0
V1_2_0 0
theta1_2_1 0
V1_2_1 0
theta1_2_2 0
V1_2_2 0
theta1_2_3 0
V1_2_3 0
theta1_2_4 0
V1_2_4 0
theta1_3_0 0
V1_3_0 0
theta1_3_1 0
V1_3_1 0
theta1_3_2 0
V1_3_2 0
theta1_3_3 0
V1_3_3 0
theta1_3_4 0
V1_3_4 0
theta1_4_0 0
V1_4_0 0
theta1_4_1 0
V1_4_1 0
theta1_4_2 0
V1_4_2 0
theta1_4_3 0
V1_4_3 0
theta1_4_4 0
V1_4_4 0
theta2_3_0 0
V2_3_0 0
theta2_3_1 0
V2_3_1 0
theta2_3_2 0
V2_3_2 0
theta2_3_3 0
V2_3_3 0
theta2_3_4 0
V2_3_4 0
theta2_4_0 0
V2_4_0 0
theta2_4_1 0
V2_4_1 0
theta2_4_2 0
V2_4_2 0
theta2_4_3 0
V2_4_3 0
theta2_4_4 0
V2_4_4 0
theta3_4_0 0
V3_4_0 0
theta3_4_1 0
V3_4_1 0
theta3_4_2 0
V3_4_2 0
theta3_4_3 6.2072538211253434e+00
V3_4_3 1
theta3_4_4 0
V3_4_4 0
gamma0_1_0 0
gamma0_1_1 0
gamma0_1_2 0
gamma0_1_3 0
gamma0_1_4 0
gamma0_2_0 0
gamma0_2_1 0
gamma0_2_2 0
gamma0_2_3 3.1608010091302732e-15
gamma0_2_4 6.1992582710468855e-17
gamma0_3_0 0
gamma0_3_1 0
gamma0_3_2 0
gamma0_3_3 0
gamma0_3_4 0
gamma0_4_0 0
gamma0_4_1 7.1008771254847298e+00
gamma0_4_2 0
gamma0_4_3 0
gamma0_4_4 0
gamma1_2_0 2.7086673211552953e-12
gamma1_2_1 0
gamma1_2_2 0
gamma1_2_3 0
gamma1_2_4 0
gamma1_3_0 0
gamma1_3_1 0
gamma1_3_2 0
gamma1_3_3 0
gamma1_3_4 0
gamma1_4_0 0
gamma1_4_1 0
gamma1_4_2 0
gamma1_4_3 0
gamma1_4_4 0
gamma2_3_0 0
gamma2_3_1 0
gamma2_3_2 0
gamma2_3_3 0
gamma2_3_4 0
gamma2_4_0 0
gamma2_4_1 0
gamma2_4_2 0
gamma2_4_3 0
gamma2_4_4 0
gamma3_4_0 0
gamma3_4_1 0
gamma3_4_2 0
gamma3_4_3 0
gamma3_4_4 0
y1 1
y2 1
y3 1
y4 0
y0 0
s0_1_0 8.7624181057138186e-12
s0_1_1 1.3568633860487764e-11
s0_1_2 9.9722020585914761e-12
s0_1_3 2.4124869000920180e-11
s0_1_4 1.0412782557244551e-11
s0_2_0 0
s0_2_1 0
s0_2_2 0
s0_2_3 0
s0_2_4 0
s0_3_0 1.2795195213914899e-11
s0_3_1 1.7185219810942276e-11
s0_3_2 1.6696176061127407e-11
s0_3_3 1.5993994017393624e-11
s0_3_4 1.5413733816700161e-11
s0_4_0 6.6014578061229209e-12
s0_4_1 1.0528317626131333e-11
s0_4_2 7.8112417590005793e-12
s0_4_3 2.1381636629077356e-11
s0_4_4 8.3399953609841759e-12
s1_2_0 8.3457211662536306e+00
s1_2_1 2.4383601046567951e+00
s1_2_2 3.0479501308218921e+00
s1_2_3 1.0779960472802500e+01
s1_2_4 3.1545369759521020e+00
s1_3_0 1.2810082425648631e+01
s1_3_1 3.8474926900456774e+00
s1_3_2 9.0185447410663944e+00
s1_3_3 4.8093658625570965e+00
s1_3_4 6.3658030568986268e+00
s1_4_0 0
s1_4_1 0
s1_4_2 0
s1_4_3 0
s1_4_4 0
s2_3_0 1.0415260351137915e+01
s2_3_1 6.8954428208771503e+00
s2_3_2 5.9705946102544685e+00
s2_3_3 7.4632432628179366e+00
s2_3_4 7.1589742768544298e+00
s2_4_0 0
s2_4_1 0
s2_4_2 0
s2_4_3 0
s2_4_4 0
s3_4_0 1.4847208325609822e+01
s3_4_1 6.2093658625641179e+00
s3_4_2 1.1301603367475646e+01
s3_4_3 5.2474926900512111e+00
s3_4_4 8.7272538211316917e+00
t0_1_0 0
t0_1_1 7.0396395091668909e-12
t0_1_2 8.7870729989728660e-12
t0_1_3 1.8396827936088065e-11
t0_1_4 8.7624181057138186e-12
t0_2_0 0
t0_2_1 0
t0_2_2 0
t0_2_3 0
t0_2_4 0
t0_3_0 1.5993994017393624e-11
t0_3_1 9.4423442416742667e-12
t0_3_2 1.8192603086814170e-11
t0_3_3 1.2795195213914899e-11
t0_3_4 1.8869308382837563e-11
t0_4_0 8.2518222576536509e-12
t0_4_1 9.2005998087577894e-12
t0_4_2 7.4676849337313291e-12
t0_4_3 2.0554528208765238e-11
t0_4_4 6.6014578061229209e-12
t1_2_0 7.8667567513475980e+00
t1_2_1 3.0479501308203480e+00
t1_2_2 2.4383601046566117e+00
t1_2_3 1.1310735952851786e+01
t1_2_4 3.3131712199410148e+00
t1_3_0 1.3447208325591633e+01
t1_3_1 4.8093658625570965e+00
t1_3_2 9.9016033674635473e+00
t1_3_3 3.8474926900456774e+00
t1_3_4 7.3272538211242404e+00
t1_4_0 0
t1_4_1 0
t1_4_2 0
t1_4_3 0
t1_4_4 0
t2_3_0 1.1531350665993294e+01
t2_3_1 7.2477259672262599e+00
t2_3_2 7.4632432628241281e+00
t2_3_3 5.9705946102563043e+00
t2_3_4 7.9617907970929718e+00
t2_4_0 0
t2_4_1 0
t2_4_2 0
t2_4_3 0
t2_4_4 0
t3_4_0 1.2455231862022172e+01
t3_4_1 5.2474926900516454e+00
t3_4_2 8.1637658302007967e+00
t3_4_3 1.0054179711005418e-11
t3_4_4 4.9658030569084231e+00
r0_1_0 5.7008771254864516e+00
r0_1_1 5.7008771254864516e+00
r0_1_2 6.3540051817791356e+00
r0_1_3 1.3695872487757782e+01
r0_1_4 6.7460265618385327e+00
r0_2_0 3.3060550509632392e+00
r0_2_1 8.7488272563211424e+00
r0_2_2 3.3060550509632392e+00
r0_2_3 1.6349749888033330e+01
r0_2_4 7.5391977817954370e+00
r0_3_0 8.8865066252019940e+00
r0_3_1 1.0510242988044068e+01
r0_3_2 1.0769298313764988e+01
r0_3_3 8.8865066252019940e+00
r0_3_4 1.1553280382967229e+01
r0_4_0 5.3460265618412119e+00
r0_4_1 0
r0_4_2 5.4992262709009507e+00
r0_4_3 1.5093760446327657e+01
r0_4_4 5.3460265618412119e+00
r1_2_0 0
r1_2_1 4.6406865121964850e-12
r1_2_2 4.6406865121964850e-12
r1_2_3 1.8685781982330075e-11
r1_2_4 6.3915305588110219e-12
r1_3_0 2.2211784427406652e-11
r1_3_1 7.3230813418890840e-12
r1_3_2 1.6005088076401112e-11
r1_3_3 7.3230813418890840e-12
r1_3_4 1.1583343857076932e-11
r1_4_0 1.1046903687345386e+01
r1_4_1 1.4000000000000297e+00
r1_4_2 5.2411213507718752e+00
r1_4_3 1.1016619683700052e+01
r1_4_4 1.4000000000000297e+00
r2_3_0 0
r2_3_1 0
r2_3_2 0
r2_3_3 0
r2_3_4 0
r2_4_0 8.6520816128127720e+00
r2_4_1 4.4479501308256344e+00
r2_4_2 2.1931712199461311e+00
r2_4_3 1.3670497083953515e+01
r2_4_4 2.1931712199461311e+00
r3_4_0 0
r3_4_1 0
r3_4_2 0
r3_4_3 0
r3_4_4 0
